\ Model iteration_27
\ LP format - for model browsing. Use MPS format to capture full model detail.
Minimize
  c(0,17)_ru
Subject To
 cont[0]: - 0 + 1 <= 10000
 cont[1]: 0 - 1 <= -0.001
 cont[2]: - 0 + 3 <= 10000
 cont[3]: 0 - 3 <= -0.001
 cont[4]: - 3 + 4 <= 30
 cont[5]: 3 - 4 <= -30
 cont[6]: - 4 + 5 <= 10000
 cont[7]: 4 - 5 <= -0.001
 cont[8]: - 3 + 5 <= 10000
 cont[9]: 3 - 5 <= -0.001
 cont[10]: - 1 + 7 <= 10000
 cont[11]: 1 - 7 <= -0.001
 cont[12]: - 5 + 6 <= 10
 cont[13]: 5 - 6 <= -10
 cont[14]: - 3 + 6 <= 10000
 cont[15]: 3 - 6 <= -0.001
 cont[16]: - 6 + 9 <= 10000
 cont[17]: 6 - 9 <= -0.001
 cont[18]: - 4 + 9 <= 10000
 cont[19]: 4 - 9 <= -0.001
 cont[20]: - 5 + 9 <= 10000
 cont[21]: 5 - 9 <= -0.001
 cont[22]: - 3 + 9 <= 10000
 cont[23]: 3 - 9 <= -0.001
 cont[24]: - 9 + 10 <= 10
 cont[25]: 9 - 10 <= -10
 cont[26]: - 5 + 10 <= 10000
 cont[27]: 5 - 10 <= -0.001
 cont[28]: - 3 + 10 <= 10000
 cont[29]: 3 - 10 <= -0.001
 cont[30]: - 10 + 11 <= 10000
 cont[31]: 10 - 11 <= -0.001
 cont[32]: - 4 + 11 <= 10000
 cont[33]: 4 - 11 <= -0.001
 cont[34]: - 9 + 11 <= 10000
 cont[35]: 9 - 11 <= -0.001
 cont[36]: - 6 + 11 <= 10000
 cont[37]: 6 - 11 <= -0.001
 cont[38]: - 5 + 11 <= 10000
 cont[39]: 5 - 11 <= -0.001
 cont[40]: - 3 + 11 <= 10000
 cont[41]: 3 - 11 <= -0.001
 cont[42]: - 7 + 13 <= 10000
 cont[43]: 7 - 13 <= -0.001
 cont[44]: - 1 + 13 <= 10000
 cont[45]: 1 - 13 <= -0.001
 cont[46]: - 11 + 12 <= 10
 cont[47]: 11 - 12 <= -10
 cont[48]: - 9 + 12 <= 10000
 cont[49]: 9 - 12 <= -0.001
 cont[50]: - 5 + 12 <= 10000
 cont[51]: 5 - 12 <= -0.001
 cont[52]: - 3 + 12 <= 10000
 cont[53]: 3 - 12 <= -0.001
 cont[54]: - 13 + 15 <= 10000
 cont[55]: 13 - 15 <= -0.001
 cont[56]: - 7 + 15 <= 10000
 cont[57]: 7 - 15 <= -0.001
 cont[58]: - 1 + 15 <= 10000
 cont[59]: 1 - 15 <= -0.001
 cont[60]: - 0 + 17 - c(0,17)_ru <= 120.003
 cont[61]: 0 - 17 <= 0
 cont[62]: - 12 + 17 <= 10000
 cont[63]: 12 - 17 <= -0.001
 z0: - 0.1666666666666667 1 + 0.1666666666666667 7 + 6 lambda[0]
   + 6 lambda[2] + 6 lambda[3] + 6 lambda[4] + 6 lambda[5] + 6 lambda[6]
   + 6 lambda[7] + 6 lambda[8] + 6 lambda[9] + 6 lambda[10] + 6 lambda[11]
   + 6 lambda[12] + 6 lambda[13] + 6 lambda[14] + 6 lambda[15]
   + 6 lambda[16] + 6 lambda[17] + 6 lambda[18] + 6 lambda[19]
   + 6 lambda[20] + 6 lambda[21] + 6 lambda[22] + 6 lambda[23]
   + 6 lambda[24] + 6 lambda[25] + 6 lambda[26] <= 1671.666666666667
 z1: 0.1666666666666667 1 - 0.1666666666666667 7 + 6 lambda[0]
   + 6 lambda[1] + 6 lambda[3] + 6 lambda[4] + 6 lambda[5] + 6 lambda[6]
   + 6 lambda[7] + 6 lambda[8] + 6 lambda[9] + 6 lambda[10] + 6 lambda[11]
   + 6 lambda[12] + 6 lambda[13] + 6 lambda[14] + 6 lambda[15]
   + 6 lambda[16] + 6 lambda[17] + 6 lambda[18] + 6 lambda[19]
   + 6 lambda[20] + 6 lambda[21] + 6 lambda[22] + 6 lambda[23]
   + 6 lambda[24] + 6 lambda[25] + 6 lambda[26] <= -5.000166666666667
 z2: - 0.1666666666666667 1 + 0.1666666666666667 7 + 6 lambda[0]
   + 6 lambda[1] + 6 lambda[2] + 6 lambda[4] + 6 lambda[5] + 6 lambda[6]
   + 6 lambda[7] + 6 lambda[8] + 6 lambda[9] + 6 lambda[10] + 6 lambda[11]
   + 6 lambda[12] + 6 lambda[13] + 6 lambda[14] + 6 lambda[15]
   + 6 lambda[16] + 6 lambda[17] + 6 lambda[18] + 6 lambda[19]
   + 6 lambda[20] + 6 lambda[21] + 6 lambda[22] + 6 lambda[23]
   + 6 lambda[24] + 6 lambda[25] + 6 lambda[26] <= 1661.666666666667
 z3: 0.1666666666666667 1 - 0.1666666666666667 7 + 6 lambda[0]
   + 6 lambda[1] + 6 lambda[2] + 6 lambda[3] + 6 lambda[5] + 6 lambda[6]
   + 6 lambda[7] + 6 lambda[8] + 6 lambda[9] + 6 lambda[10] + 6 lambda[11]
   + 6 lambda[12] + 6 lambda[13] + 6 lambda[14] + 6 lambda[15]
   + 6 lambda[16] + 6 lambda[17] + 6 lambda[18] + 6 lambda[19]
   + 6 lambda[20] + 6 lambda[21] + 6 lambda[22] + 6 lambda[23]
   + 6 lambda[24] + 6 lambda[25] + 6 lambda[26] <= 4.999833333333333
 z4: - 0.1666666666666667 7 + 0.1666666666666667 13 + 6 lambda[0]
   + 6 lambda[1] + 6 lambda[2] + 6 lambda[3] + 6 lambda[4] + 6 lambda[6]
   + 6 lambda[7] + 6 lambda[8] + 6 lambda[9] + 6 lambda[10] + 6 lambda[11]
   + 6 lambda[12] + 6 lambda[13] + 6 lambda[14] + 6 lambda[15]
   + 6 lambda[16] + 6 lambda[17] + 6 lambda[18] + 6 lambda[19]
   + 6 lambda[20] + 6 lambda[21] + 6 lambda[22] + 6 lambda[23]
   + 6 lambda[24] + 6 lambda[25] + 6 lambda[26] <= 1671.666666666667
 z5: 0.1666666666666667 7 - 0.1666666666666667 13 + 6 lambda[0]
   + 6 lambda[1] + 6 lambda[2] + 6 lambda[3] + 6 lambda[4] + 6 lambda[5]
   + 6 lambda[7] + 6 lambda[8] + 6 lambda[9] + 6 lambda[10] + 6 lambda[11]
   + 6 lambda[12] + 6 lambda[13] + 6 lambda[14] + 6 lambda[15]
   + 6 lambda[16] + 6 lambda[17] + 6 lambda[18] + 6 lambda[19]
   + 6 lambda[20] + 6 lambda[21] + 6 lambda[22] + 6 lambda[23]
   + 6 lambda[24] + 6 lambda[25] + 6 lambda[26] <= -5.000166666666667
 z6: - 0.1666666666666667 1 + 0.1666666666666667 13 + 6 lambda[0]
   + 6 lambda[1] + 6 lambda[2] + 6 lambda[3] + 6 lambda[4] + 6 lambda[5]
   + 6 lambda[6] + 6 lambda[8] + 6 lambda[9] + 6 lambda[10] + 6 lambda[11]
   + 6 lambda[12] + 6 lambda[13] + 6 lambda[14] + 6 lambda[15]
   + 6 lambda[16] + 6 lambda[17] + 6 lambda[18] + 6 lambda[19]
   + 6 lambda[20] + 6 lambda[21] + 6 lambda[22] + 6 lambda[23]
   + 6 lambda[24] + 6 lambda[25] + 6 lambda[26] <= 1671.666666666667
 z7: 0.1666666666666667 1 - 0.1666666666666667 13 + 6 lambda[0]
   + 6 lambda[1] + 6 lambda[2] + 6 lambda[3] + 6 lambda[4] + 6 lambda[5]
   + 6 lambda[6] + 6 lambda[7] + 6 lambda[9] + 6 lambda[10] + 6 lambda[11]
   + 6 lambda[12] + 6 lambda[13] + 6 lambda[14] + 6 lambda[15]
   + 6 lambda[16] + 6 lambda[17] + 6 lambda[18] + 6 lambda[19]
   + 6 lambda[20] + 6 lambda[21] + 6 lambda[22] + 6 lambda[23]
   + 6 lambda[24] + 6 lambda[25] + 6 lambda[26] <= -5.000166666666667
 z8: - 0.1666666666666667 7 + 0.1666666666666667 13 + 6 lambda[0]
   + 6 lambda[1] + 6 lambda[2] + 6 lambda[3] + 6 lambda[4] + 6 lambda[5]
   + 6 lambda[6] + 6 lambda[7] + 6 lambda[8] + 6 lambda[10] + 6 lambda[11]
   + 6 lambda[12] + 6 lambda[13] + 6 lambda[14] + 6 lambda[15]
   + 6 lambda[16] + 6 lambda[17] + 6 lambda[18] + 6 lambda[19]
   + 6 lambda[20] + 6 lambda[21] + 6 lambda[22] + 6 lambda[23]
   + 6 lambda[24] + 6 lambda[25] + 6 lambda[26] <= 1661.666666666667
 z9: 0.1666666666666667 7 - 0.1666666666666667 13 + 6 lambda[0]
   + 6 lambda[1] + 6 lambda[2] + 6 lambda[3] + 6 lambda[4] + 6 lambda[5]
   + 6 lambda[6] + 6 lambda[7] + 6 lambda[8] + 6 lambda[9] + 6 lambda[11]
   + 6 lambda[12] + 6 lambda[13] + 6 lambda[14] + 6 lambda[15]
   + 6 lambda[16] + 6 lambda[17] + 6 lambda[18] + 6 lambda[19]
   + 6 lambda[20] + 6 lambda[21] + 6 lambda[22] + 6 lambda[23]
   + 6 lambda[24] + 6 lambda[25] + 6 lambda[26] <= 4.999833333333333
 z10: - 0.1666666666666667 1 + 0.1666666666666667 13 + 6 lambda[0]
   + 6 lambda[1] + 6 lambda[2] + 6 lambda[3] + 6 lambda[4] + 6 lambda[5]
   + 6 lambda[6] + 6 lambda[7] + 6 lambda[8] + 6 lambda[9] + 6 lambda[10]
   + 6 lambda[12] + 6 lambda[13] + 6 lambda[14] + 6 lambda[15]
   + 6 lambda[16] + 6 lambda[17] + 6 lambda[18] + 6 lambda[19]
   + 6 lambda[20] + 6 lambda[21] + 6 lambda[22] + 6 lambda[23]
   + 6 lambda[24] + 6 lambda[25] + 6 lambda[26] <= 1661.666666666667
 z11: 0.1666666666666667 1 - 0.1666666666666667 13 + 6 lambda[0]
   + 6 lambda[1] + 6 lambda[2] + 6 lambda[3] + 6 lambda[4] + 6 lambda[5]
   + 6 lambda[6] + 6 lambda[7] + 6 lambda[8] + 6 lambda[9] + 6 lambda[10]
   + 6 lambda[11] + 6 lambda[13] + 6 lambda[14] + 6 lambda[15]
   + 6 lambda[16] + 6 lambda[17] + 6 lambda[18] + 6 lambda[19]
   + 6 lambda[20] + 6 lambda[21] + 6 lambda[22] + 6 lambda[23]
   + 6 lambda[24] + 6 lambda[25] + 6 lambda[26] <= 4.999833333333333
 z12: - 0.1666666666666667 13 + 0.1666666666666667 15 + 6 lambda[0]
   + 6 lambda[1] + 6 lambda[2] + 6 lambda[3] + 6 lambda[4] + 6 lambda[5]
   + 6 lambda[6] + 6 lambda[7] + 6 lambda[8] + 6 lambda[9] + 6 lambda[10]
   + 6 lambda[11] + 6 lambda[12] + 6 lambda[14] + 6 lambda[15]
   + 6 lambda[16] + 6 lambda[17] + 6 lambda[18] + 6 lambda[19]
   + 6 lambda[20] + 6 lambda[21] + 6 lambda[22] + 6 lambda[23]
   + 6 lambda[24] + 6 lambda[25] + 6 lambda[26] <= 1671.666666666667
 z13: 0.1666666666666667 13 - 0.1666666666666667 15 + 6 lambda[0]
   + 6 lambda[1] + 6 lambda[2] + 6 lambda[3] + 6 lambda[4] + 6 lambda[5]
   + 6 lambda[6] + 6 lambda[7] + 6 lambda[8] + 6 lambda[9] + 6 lambda[10]
   + 6 lambda[11] + 6 lambda[12] + 6 lambda[13] + 6 lambda[15]
   + 6 lambda[16] + 6 lambda[17] + 6 lambda[18] + 6 lambda[19]
   + 6 lambda[20] + 6 lambda[21] + 6 lambda[22] + 6 lambda[23]
   + 6 lambda[24] + 6 lambda[25] + 6 lambda[26] <= -5.000166666666667
 z14: - 0.1666666666666667 7 + 0.1666666666666667 15 + 6 lambda[0]
   + 6 lambda[1] + 6 lambda[2] + 6 lambda[3] + 6 lambda[4] + 6 lambda[5]
   + 6 lambda[6] + 6 lambda[7] + 6 lambda[8] + 6 lambda[9] + 6 lambda[10]
   + 6 lambda[11] + 6 lambda[12] + 6 lambda[13] + 6 lambda[14]
   + 6 lambda[16] + 6 lambda[17] + 6 lambda[18] + 6 lambda[19]
   + 6 lambda[20] + 6 lambda[21] + 6 lambda[22] + 6 lambda[23]
   + 6 lambda[24] + 6 lambda[25] + 6 lambda[26] <= 1671.666666666667
 z15: 0.1666666666666667 7 - 0.1666666666666667 15 + 6 lambda[0]
   + 6 lambda[1] + 6 lambda[2] + 6 lambda[3] + 6 lambda[4] + 6 lambda[5]
   + 6 lambda[6] + 6 lambda[7] + 6 lambda[8] + 6 lambda[9] + 6 lambda[10]
   + 6 lambda[11] + 6 lambda[12] + 6 lambda[13] + 6 lambda[14]
   + 6 lambda[15] + 6 lambda[17] + 6 lambda[18] + 6 lambda[19]
   + 6 lambda[20] + 6 lambda[21] + 6 lambda[22] + 6 lambda[23]
   + 6 lambda[24] + 6 lambda[25] + 6 lambda[26] <= -5.000166666666667
 z16: - 0.1666666666666667 1 + 0.1666666666666667 15 + 6 lambda[0]
   + 6 lambda[1] + 6 lambda[2] + 6 lambda[3] + 6 lambda[4] + 6 lambda[5]
   + 6 lambda[6] + 6 lambda[7] + 6 lambda[8] + 6 lambda[9] + 6 lambda[10]
   + 6 lambda[11] + 6 lambda[12] + 6 lambda[13] + 6 lambda[14]
   + 6 lambda[15] + 6 lambda[16] + 6 lambda[18] + 6 lambda[19]
   + 6 lambda[20] + 6 lambda[21] + 6 lambda[22] + 6 lambda[23]
   + 6 lambda[24] + 6 lambda[25] + 6 lambda[26] <= 1671.666666666667
 z17: 0.1666666666666667 1 - 0.1666666666666667 15 + 6 lambda[0]
   + 6 lambda[1] + 6 lambda[2] + 6 lambda[3] + 6 lambda[4] + 6 lambda[5]
   + 6 lambda[6] + 6 lambda[7] + 6 lambda[8] + 6 lambda[9] + 6 lambda[10]
   + 6 lambda[11] + 6 lambda[12] + 6 lambda[13] + 6 lambda[14]
   + 6 lambda[15] + 6 lambda[16] + 6 lambda[17] + 6 lambda[19]
   + 6 lambda[20] + 6 lambda[21] + 6 lambda[22] + 6 lambda[23]
   + 6 lambda[24] + 6 lambda[25] + 6 lambda[26] <= -5.000166666666667
 z18: - 0.1666666666666667 13 + 0.1666666666666667 15 + 6 lambda[0]
   + 6 lambda[1] + 6 lambda[2] + 6 lambda[3] + 6 lambda[4] + 6 lambda[5]
   + 6 lambda[6] + 6 lambda[7] + 6 lambda[8] + 6 lambda[9] + 6 lambda[10]
   + 6 lambda[11] + 6 lambda[12] + 6 lambda[13] + 6 lambda[14]
   + 6 lambda[15] + 6 lambda[16] + 6 lambda[17] + 6 lambda[18]
   + 6 lambda[20] + 6 lambda[21] + 6 lambda[22] + 6 lambda[23]
   + 6 lambda[24] + 6 lambda[25] + 6 lambda[26] <= 1661.666666666667
 z19: 0.1666666666666667 13 - 0.1666666666666667 15 + 6 lambda[0]
   + 6 lambda[1] + 6 lambda[2] + 6 lambda[3] + 6 lambda[4] + 6 lambda[5]
   + 6 lambda[6] + 6 lambda[7] + 6 lambda[8] + 6 lambda[9] + 6 lambda[10]
   + 6 lambda[11] + 6 lambda[12] + 6 lambda[13] + 6 lambda[14]
   + 6 lambda[15] + 6 lambda[16] + 6 lambda[17] + 6 lambda[18]
   + 6 lambda[19] + 6 lambda[21] + 6 lambda[22] + 6 lambda[23]
   + 6 lambda[24] + 6 lambda[25] + 6 lambda[26] <= 4.999833333333333
 z20: - 0.1666666666666667 7 + 0.1666666666666667 15 + 6 lambda[0]
   + 6 lambda[1] + 6 lambda[2] + 6 lambda[3] + 6 lambda[4] + 6 lambda[5]
   + 6 lambda[6] + 6 lambda[7] + 6 lambda[8] + 6 lambda[9] + 6 lambda[10]
   + 6 lambda[11] + 6 lambda[12] + 6 lambda[13] + 6 lambda[14]
   + 6 lambda[15] + 6 lambda[16] + 6 lambda[17] + 6 lambda[18]
   + 6 lambda[19] + 6 lambda[20] + 6 lambda[22] + 6 lambda[23]
   + 6 lambda[24] + 6 lambda[25] + 6 lambda[26] <= 1661.666666666667
 z21: 0.1666666666666667 7 - 0.1666666666666667 15 + 6 lambda[0]
   + 6 lambda[1] + 6 lambda[2] + 6 lambda[3] + 6 lambda[4] + 6 lambda[5]
   + 6 lambda[6] + 6 lambda[7] + 6 lambda[8] + 6 lambda[9] + 6 lambda[10]
   + 6 lambda[11] + 6 lambda[12] + 6 lambda[13] + 6 lambda[14]
   + 6 lambda[15] + 6 lambda[16] + 6 lambda[17] + 6 lambda[18]
   + 6 lambda[19] + 6 lambda[20] + 6 lambda[21] + 6 lambda[23]
   + 6 lambda[24] + 6 lambda[25] + 6 lambda[26] <= 4.999833333333333
 z22: - 0.1666666666666667 1 + 0.1666666666666667 15 + 6 lambda[0]
   + 6 lambda[1] + 6 lambda[2] + 6 lambda[3] + 6 lambda[4] + 6 lambda[5]
   + 6 lambda[6] + 6 lambda[7] + 6 lambda[8] + 6 lambda[9] + 6 lambda[10]
   + 6 lambda[11] + 6 lambda[12] + 6 lambda[13] + 6 lambda[14]
   + 6 lambda[15] + 6 lambda[16] + 6 lambda[17] + 6 lambda[18]
   + 6 lambda[19] + 6 lambda[20] + 6 lambda[21] + 6 lambda[22]
   + 6 lambda[24] + 6 lambda[25] + 6 lambda[26] <= 1661.666666666667
 z23: 0.1666666666666667 1 - 0.1666666666666667 15 + 6 lambda[0]
   + 6 lambda[1] + 6 lambda[2] + 6 lambda[3] + 6 lambda[4] + 6 lambda[5]
   + 6 lambda[6] + 6 lambda[7] + 6 lambda[8] + 6 lambda[9] + 6 lambda[10]
   + 6 lambda[11] + 6 lambda[12] + 6 lambda[13] + 6 lambda[14]
   + 6 lambda[15] + 6 lambda[16] + 6 lambda[17] + 6 lambda[18]
   + 6 lambda[19] + 6 lambda[20] + 6 lambda[21] + 6 lambda[22]
   + 6 lambda[23] + 6 lambda[25] + 6 lambda[26] <= 4.999833333333333
 z24: - 0.1666666666666667 15 + 0.1666666666666667 17 + 6 lambda[0]
   + 6 lambda[1] + 6 lambda[2] + 6 lambda[3] + 6 lambda[4] + 6 lambda[5]
   + 6 lambda[6] + 6 lambda[7] + 6 lambda[8] + 6 lambda[9] + 6 lambda[10]
   + 6 lambda[11] + 6 lambda[12] + 6 lambda[13] + 6 lambda[14]
   + 6 lambda[15] + 6 lambda[16] + 6 lambda[17] + 6 lambda[18]
   + 6 lambda[19] + 6 lambda[20] + 6 lambda[21] + 6 lambda[22]
   + 6 lambda[23] + 6 lambda[24] + 6 lambda[26] <= 1671.666666666667
 z25: 0.1666666666666667 15 - 0.1666666666666667 17 + 6 lambda[0]
   + 6 lambda[1] + 6 lambda[2] + 6 lambda[3] + 6 lambda[4] + 6 lambda[5]
   + 6 lambda[6] + 6 lambda[7] + 6 lambda[8] + 6 lambda[9] + 6 lambda[10]
   + 6 lambda[11] + 6 lambda[12] + 6 lambda[13] + 6 lambda[14]
   + 6 lambda[15] + 6 lambda[16] + 6 lambda[17] + 6 lambda[18]
   + 6 lambda[19] + 6 lambda[20] + 6 lambda[21] + 6 lambda[22]
   + 6 lambda[23] + 6 lambda[24] + 6 lambda[25] <= -5.000166666666667
 cc: 7.8927e-09 lambda[0] + 0.6931471884526468 lambda[1]
   + 0.6931471884526468 lambda[2] + 0.6931471884526468 lambda[3]
   + 0.6931471884526468 lambda[4] + 0.6931471884526468 lambda[5]
   + 0.6931471884526468 lambda[6] + 0.6931471884526468 lambda[7]
   + 0.6931471884526468 lambda[8] + 0.6931471884526468 lambda[9]
   + 0.6931471884526468 lambda[10] + 0.6931471884526468 lambda[11]
   + 0.6931471884526468 lambda[12] + 0.6931471884526468 lambda[13]
   + 0.6931471884526468 lambda[14] + 0.6931471884526468 lambda[15]
   + 0.6931471884526468 lambda[16] + 0.6931471884526468 lambda[17]
   + 0.6931471884526468 lambda[18] + 0.6931471884526468 lambda[19]
   + 0.6931471884526468 lambda[20] + 0.6931471884526468 lambda[21]
   + 0.6931471884526468 lambda[22] + 0.6931471884526468 lambda[23]
   + 0.6931471884526468 lambda[24] + 0.6931471884526468 lambda[25]
   + 0.6931471884526468 lambda[26] <= 0.2876820724517809
 x0: 0 = 0
 sum_lam: lambda[0] + lambda[1] + lambda[2] + lambda[3] + lambda[4]
   + lambda[5] + lambda[6] + lambda[7] + lambda[8] + lambda[9] + lambda[10]
   + lambda[11] + lambda[12] + lambda[13] + lambda[14] + lambda[15]
   + lambda[16] + lambda[17] + lambda[18] + lambda[19] + lambda[20]
   + lambda[21] + lambda[22] + lambda[23] + lambda[24] + lambda[25]
   + lambda[26] = 1
 R93: 7.8927e-09 lambda[0] + 0.6931471884526468 lambda[1]
   + 0.6931471884526468 lambda[2] + 0.6931471884526468 lambda[3]
   + 0.6931471884526468 lambda[4] + 0.6931471884526468 lambda[5]
   + 0.6931471884526468 lambda[6] + 0.6931471884526468 lambda[7]
   + 0.6931471884526468 lambda[8] + 0.6931471884526468 lambda[9]
   + 0.6931471884526468 lambda[10] + 0.6931471884526468 lambda[11]
   + 0.6931471884526468 lambda[12] + 0.6931471884526468 lambda[13]
   + 0.6931471884526468 lambda[14] + 0.6931471884526468 lambda[15]
   + 0.6931471884526468 lambda[16] + 0.6931471884526468 lambda[17]
   + 0.6931471884526468 lambda[18] + 0.6931471884526468 lambda[19]
   + 0.6931471884526468 lambda[20] + 0.6931471884526468 lambda[21]
   + 0.6931471884526468 lambda[22] + 0.6931471884526468 lambda[23]
   + 0.6931471884526468 lambda[24] + 0.6931471884526468 lambda[25]
   + 0.6931471884526468 lambda[26] - phi[0] = 0
Bounds
End
